p cnf 143 357
r 0.5 1 2 3 4 5 0
e 6 7 8 9 10 11 12 13 14 15 16 17 18 19 20 21 22 23 24 25 26 27 28 29 30 31 32 33 34 35 36 37 38 39 40 41 42 43 44 45 46 47 48 49 50 51 52 53 54 55 56 57 58 59 60 61 62 63 64 65 66 67 68 69 70 71 72 73 74 75 76 77 78 79 80 81 82 83 84 85 86 87 88 89 90 91 92 93 94 95 96 97 98 99 100 101 102 103 104 105 106 107 108 109 110 111 112 113 114 115 116 117 118 119 120 121 122 123 124 125 126 127 128 129 130 131 132 133 134 135 136 137 138 139 140 141 142 143 0
-143 -6 1 0
-142 -7 2 0
-141 -8 3 0
-140 -9 4 0
-139 -10 5 0
-138 1 0
-138 -6 0
-137 6 0
-137 -1 0
-136 2 0
-136 -7 0
-135 7 0
-135 -2 0
-134 3 0
-134 -8 0
-133 8 0
-133 -3 0
-132 4 0
-132 -9 0
-131 9 0
-131 -4 0
-130 5 0
-130 -10 0
-129 10 0
-129 -5 0
-128 138 137 136 135 134 133 132 131 130 129 0
-127 5 0
-127 1 0
-127 4 0
-127 -2 0
-126 3 0
-126 4 0
-126 -2 0
-125 1 0
-125 3 0
-125 4 0
-125 5 0
-125 -2 0
-124 5 0
-124 4 0
-124 3 0
-124 -2 0
-123 3 0
-123 5 0
-123 1 0
-123 4 0
-123 -2 0
-122 4 0
-122 3 0
-122 -2 0
-121 3 0
-121 -2 0
-120 1 0
-120 3 0
-120 4 0
-120 -2 0
-119 4 0
-119 5 0
-119 1 0
-119 -2 0
-118 3 0
-118 5 0
-118 1 0
-118 -4 0
-117 1 0
-117 2 0
-117 5 0
-117 3 0
-117 -4 0
-116 3 0
-116 1 0
-116 2 0
-116 -4 0
-115 5 0
-115 2 0
-115 -4 0
-114 2 0
-114 1 0
-114 5 0
-114 -4 0
-113 5 0
-113 3 0
-113 1 0
-113 -4 0
-112 5 0
-112 2 0
-112 3 0
-112 -4 0
-111 5 0
-111 3 0
-111 2 0
-111 1 0
-111 -4 0
-110 2 0
-110 3 0
-110 5 0
-110 1 0
-110 -4 0
-109 1 0
-109 4 0
-109 5 0
-109 -3 0
-108 1 0
-108 2 0
-108 5 0
-108 -3 0
-107 4 0
-107 1 0
-107 5 0
-107 -3 0
-106 5 0
-106 1 0
-106 2 0
-106 -3 0
-105 5 0
-105 2 0
-105 1 0
-105 -3 0
-104 5 0
-104 4 0
-104 2 0
-104 -3 0
-103 4 0
-103 5 0
-103 -3 0
-102 2 0
-102 5 0
-102 -3 0
-101 1 0
-101 5 0
-101 -3 0
-100 1 0
-100 3 0
-100 -5 0
-99 2 0
-99 1 0
-99 3 0
-99 4 0
-99 -5 0
-98 4 0
-98 2 0
-98 3 0
-98 -5 0
-97 4 0
-97 2 0
-97 1 0
-97 -5 0
-96 2 0
-96 1 0
-96 -5 0
-95 3 0
-95 2 0
-95 4 0
-95 -5 0
-94 1 0
-94 3 0
-94 4 0
-94 -5 0
-93 4 0
-93 1 0
-93 2 0
-93 -5 0
-92 4 0
-92 5 0
-92 3 0
-92 2 0
-92 -1 0
-91 4 0
-91 5 0
-91 2 0
-91 -1 0
-90 3 0
-90 2 0
-90 -1 0
-89 5 0
-89 3 0
-89 2 0
-89 -1 0
-88 5 0
-88 4 0
-88 3 0
-88 -1 0
-87 2 0
-87 4 0
-87 -1 0
-86 3 0
-86 5 0
-86 2 0
-86 -1 0
-85 4 0
-85 2 0
-85 3 0
-85 -1 0
-84 5 0
-84 2 0
-84 3 0
-84 -1 0
-83 -3 0
-83 -4 0
-83 -2 0
-82 -4 0
-82 -1 0
-82 -5 0
-81 -2 0
-81 -4 0
-81 -3 0
-80 -1 0
-80 -4 0
-80 -2 0
-79 -3 0
-79 -1 0
-78 -4 0
-78 -1 0
-78 -2 0
-77 -4 0
-77 -3 0
-77 -1 0
-76 -1 0
-76 -3 0
-76 -4 0
-75 -2 0
-75 -1 0
-75 -4 0
-74 -1 0
-74 -4 0
-73 -2 0
-73 -4 0
-73 -5 0
-73 -3 0
-72 -1 0
-72 -3 0
-71 -4 0
-71 -2 0
-71 -1 0
-70 -10 -6 -9 7 0
-69 -8 -9 7 0
-68 -6 -8 -9 -10 7 0
-67 -10 -9 -8 7 0
-66 -8 -10 -6 -9 7 0
-65 -9 -8 7 0
-64 -8 7 0
-63 -6 -8 -9 7 0
-62 -9 -10 -6 7 0
-61 -8 -10 -6 9 0
-60 -6 -7 -10 -8 9 0
-59 -8 -6 -7 9 0
-58 -10 -7 9 0
-57 -7 -6 -10 9 0
-56 -10 -8 -6 9 0
-55 -10 -7 -8 9 0
-54 -10 -8 -7 -6 9 0
-53 -7 -8 -10 -6 9 0
-52 -6 -9 -10 8 0
-51 -6 -7 -10 8 0
-50 -9 -6 -10 8 0
-49 -10 -6 -7 8 0
-48 -10 -7 -6 8 0
-47 -10 -9 -7 8 0
-46 -9 -10 8 0
-45 -7 -10 8 0
-44 -6 -10 8 0
-43 -6 -8 10 0
-42 -7 -6 -8 -9 10 0
-41 -9 -7 -8 10 0
-40 -9 -7 -6 10 0
-39 -7 -6 10 0
-38 -8 -7 -9 10 0
-37 -6 -8 -9 10 0
-36 -9 -6 -7 10 0
-35 -9 -10 -8 -7 6 0
-34 -9 -10 -7 6 0
-33 -8 -7 6 0
-32 -10 -8 -7 6 0
-31 -10 -9 -8 6 0
-30 -7 -9 6 0
-29 -8 -10 -7 6 0
-28 -9 -7 -8 6 0
-27 -10 -7 -8 6 0
-26 8 9 7 0
-25 9 6 10 0
-24 7 9 8 0
-23 6 9 7 0
-22 8 6 0
-21 9 6 7 0
-20 9 8 6 0
-19 6 8 9 0
-18 7 6 9 0
-17 6 9 0
-16 7 9 10 8 0
-15 6 8 0
-14 9 7 6 0
-13 70 0
-13 69 0
-13 68 0
-13 67 0
-13 66 0
-13 65 0
-13 64 0
-13 63 0
-13 62 0
-13 61 0
-13 60 0
-13 59 0
-13 58 0
-13 57 0
-13 56 0
-13 55 0
-13 54 0
-13 53 0
-13 52 0
-13 51 0
-13 50 0
-13 49 0
-13 48 0
-13 47 0
-13 46 0
-13 45 0
-13 44 0
-13 43 0
-13 42 0
-13 41 0
-13 40 0
-13 39 0
-13 38 0
-13 37 0
-13 36 0
-13 35 0
-13 34 0
-13 33 0
-13 32 0
-13 31 0
-13 30 0
-13 29 0
-13 28 0
-13 27 0
-13 26 0
-13 25 0
-13 24 0
-13 23 0
-13 22 0
-13 21 0
-13 20 0
-13 19 0
-13 18 0
-13 17 0
-13 16 0
-13 15 0
-13 14 0
-12 127 126 125 124 123 122 121 120 119 118 117 116 115 114 113 112 111 110 109 108 107 106 105 104 103 102 101 100 99 98 97 96 95 94 93 92 91 90 89 88 87 86 85 84 83 82 81 80 79 78 77 76 75 74 73 72 71 13 0
-11 143 0
-11 142 0
-11 141 0
-11 140 0
-11 139 0
-11 128 0
-11 12 0
11 -2 -4 0

